&GLOBAL
   PROJECT Si
   RUN_TYPE MD
   PRINT_LEVEL LOW
&END GLOBAL

&MOTION
  &MD
    ENSEMBLE NVT
    STEPS 1000
    TEMPERATURE 3000.0
    TIMESTEP 0.5
    &THERMOSTAT
       REGION MASSIVE
       &NOSE
          LENGTH   3
          MTS      2
          TIMECON 100
          YOSHIDA  3
       &END NOSE
    &END 
  &END MD
  &PRINT
     &TRAJECTORY  SILENT
       &EACH
         MD  20
       &END EACH
     &END TRAJECTORY
     &FORCES  ON
       FILENAME force.xyz
       &EACH
         MD  20
       &END EACH
     &END FORCES
  &END PRINT
  &GEO_OPT
     MAX_ITER 50
     OPTIMIZER BFGS
  &END GEO_OPT
&END MOTION

&FORCE_EVAL
   METHOD Quickstep
   STRESS_TENSOR ANALYTICAL
   &DFT
      #BASIS_SET_FILE_NAME BASIS_MOLOPT
      #POTENTIAL_FILE_NAME POTENTIAL
      BASIS_SET_FILE_NAME BASIS_SET
      POTENTIAL_FILE_NAME GTH_POTENTIALS
      &SCF
         MAX_SCF 100
         &OT ON
            MINIMIZER DIIS
            N_DIIS 5
         &END OT
      &END SCF
      &MGRID
         NGRIDS 4
         CUTOFF 400
      &END MGRID
      &LS_SCF
         MAX_SCF 50
      &END LS_SCF
      &XC
         &XC_FUNCTIONAL
            &PBE
            &END PBE
         &END XC_FUNCTIONAL
      &END XC
   &END DFT
   &PRINT
      &STRESS_TENSOR ON
      &END STRESS_TENSOR
   &END PRINT
   &SUBSYS
      &COORD
Si       1.12108000       5.34871000       7.31764000   
Si       9.82625000       5.09481000       6.31371000   
Si       7.84256000      10.56159000       8.91074000   
Si       9.20664000       2.06423000       8.68280000   
Si      10.52207000       9.87246000       0.35092000   
Si       5.68595000       4.59007000       2.81166000   
Si       5.07742000       9.64385000       3.97758000   
Si       8.07563000       5.92235000       8.29472000   
Si       5.42257000       3.06383000       4.82358000   
Si       0.84575000       9.37796000       5.18780000   
Si       7.74325000      10.39589000       6.33781000   
Si       0.02532000       4.16726000       3.94111000   
Si       6.04206000       0.74253000       2.30698000   
Si      10.59216000       2.34339000       5.41400000   
Si       2.07055000       7.42141000       3.46593000   
Si      10.31166000       0.57181000       7.38873000   
Si       5.20628000       1.46146000      10.19373000   
Si       3.84137000       8.88282000       8.57237000   
Si       1.03354000      10.52239000       1.96138000   
Si       4.21629000       1.49846000       3.48123000   
Si       0.50626000       1.94283000       1.47992000   
Si       1.15862000       4.77953000       9.59712000   
Si       2.33058000       3.41485000       1.06887000   
Si       2.27116000       1.03555000       7.78493000   
Si       5.39683000       6.62252000      10.89910000   
Si       7.30909000       5.33442000       6.35372000   
Si       8.96689000       3.88070000       2.92652000   
Si       7.92917000       2.00033000       2.96969000   
Si       6.89566000       4.85613000       0.24294000   
Si       4.70730000       4.12856000       6.91306000   
Si       7.31821000       8.97552000       4.44733000   
Si       6.75588000      10.90678000      10.80290000   
Si       9.63440000       9.23805000       9.01787000   
Si       3.36367000       7.45274000       0.20319000   
Si       5.76090000       5.17627000       8.42343000   
Si       2.21365000       2.68233000       9.71065000   
Si       9.84834000       4.93076000      10.12491000   
Si       8.98060000      10.89689000       4.17811000   
Si       8.20228000       6.38806000       4.16789000   
Si       7.16007000       3.54791000       9.31681000   
Si       8.17856000       3.14204000       6.99362000   
Si       3.44975000       4.57875000       4.59388000   
Si       0.38603000       3.09116000       7.77328000   
Si      10.32817000       8.84071000       3.22817000   
Si       0.17781000       7.33793000       9.62042000   
Si       4.38949000       0.18450000       8.08536000   
Si       3.35048000       2.32460000       5.59784000   
Si      10.90221000       5.90531000       1.85602000   
Si       2.03150000       8.96300000      10.11884000   
Si       8.89703000       2.98566000       0.62469000   
Si       2.26824000       6.09795000       5.49637000   
Si      10.49961000       7.77749000       6.29641000   
Si       4.15860000      10.66002000       5.91363000   
Si       0.19258000       6.46342000       4.27252000   
Si       1.58107000       0.63529000       5.25989000   
Si       7.71189000       1.74667000       5.15674000   
Si       3.46761000       0.87740000       1.15510000   
Si       4.63389000       3.13922000       1.04500000   
Si       6.34460000       8.46748000       9.55120000   
Si       2.84011000       8.11341000       6.57402000   
Si       8.93199000       0.19351000       1.48752000   
Si       8.29990000       8.20917000       7.45344000   
Si       2.99228000       5.53567000       1.85548000   
Si       3.21423000       9.55640000       1.79748000 
      &END COORD
      &CELL
         PERIODIC XYZ
         A 10.86200000000000000e+00 0.000000000000000000e+00 0.000000000000000000e+00
         B 0.000000000000000000e+00 10.86200000000000000e+00 0.000000000000000000e+00
         C 0.000000000000000000e+00 0.000000000000000000e+00 10.86200000000000000e+00
      &END CELL
      &KIND Si
         BASIS_SET DZVP-GTH-PBE
         POTENTIAL GTH-PBE
      &END KIND
   &END SUBSYS
&END FORCE_EVAL
